
Gurobi 9.5.0 (linux64) logging started Wed Nov  8 12:05:03 2023

Set parameter LogFile to value "/lustre1/scratch/348/vsc34888/JointResearch/05.Models/06.Benchmarking/F.Representative_days_based_on_Line_Benefit_NN_OC_fy_1/3-bus_ByStages_nc100/openStarNet_3-bus_ByStages_nc100.log"
Set parameter Method to value 2
Set parameter MIPFocus to value 1
Set parameter Presolve to value 2
Set parameter RINS to value 100
Set parameter MIPGap to value 0.01
Set parameter Threads to value 36
Set parameter TimeLimit to value 604800
Set parameter IterationLimit to value 760000000
Gurobi Optimizer version 9.5.0 build v9.5.0rc5 (linux64)
Thread count: 36 physical cores, 36 logical processors, using up to 36 threads
Optimize a model with 6603 rows, 2970 columns and 18985 nonzeros
Model fingerprint: 0xe91b9217
Variable types: 2961 continuous, 9 integer (9 binary)
Coefficient statistics:
  Matrix range     [1e-02, 8e+02]
  Objective range  [1e+00, 1e+00]
  Bounds range     [9e-06, 2e+00]
  RHS range        [9e-06, 1e+00]
Presolve removed 2403 rows and 704 columns
Presolve time: 0.04s
Presolved: 4200 rows, 2266 columns, 14857 nonzeros
Variable types: 2257 continuous, 9 integer (9 binary)
Found heuristic solution: objective 76.0594490
Root relaxation presolved: 4200 rows, 2266 columns, 14857 nonzeros

Root barrier log...

Ordering time: 0.00s

Barrier statistics:
 Dense cols : 9
 AA' NZ     : 3.720e+04
 Factor NZ  : 8.574e+04 (roughly 3 MB of memory)
 Factor Ops : 1.922e+06 (less than 1 second per iteration)
 Threads    : 36

                  Objective                Residual
Iter       Primal          Dual         Primal    Dual     Compl     Time
   0   3.82033904e+05 -4.41990663e+07  1.53e+01 3.40e+01  8.33e+03     0s
   1   2.59467462e+04 -8.82987396e+05  1.03e+00 7.64e-10  2.73e+02     0s
   2   2.96246070e+03 -3.53466255e+05  4.55e-02 2.87e-09  4.79e+01     0s
   3   1.06830987e+03 -1.04259972e+04  9.85e-04 8.16e-11  1.42e+00     0s
   4   2.08952609e+02 -2.26525959e+03  2.58e-05 1.72e-11  3.04e-01     0s
   5   1.43469528e+02 -7.79165511e+02  1.21e-05 5.44e-12  1.13e-01     0s
   6   1.12059809e+02 -2.82091438e+02  6.37e-06 2.05e-12  4.85e-02     0s
   7   8.78707166e+01 -3.99016536e+01  2.12e-06 5.19e-13  1.57e-02     0s
   8   7.34075360e+01  4.26071350e+01  2.64e-07 2.27e-13  3.79e-03     0s
   9   6.79373955e+01  6.16840306e+01  5.18e-08 4.55e-13  7.69e-04     0s
  10   6.70465662e+01  6.41067069e+01  3.27e-08 2.27e-13  3.62e-04     0s
  11   6.67336412e+01  6.43842564e+01  1.75e-08 2.27e-13  2.89e-04     0s
  12   6.65062887e+01  6.45393482e+01  1.20e-08 2.27e-13  2.42e-04     0s
  13   6.62625854e+01  6.50568841e+01  6.41e-09 2.27e-13  1.48e-04     0s
  14   6.61289117e+01  6.53191087e+01  2.91e-09 2.27e-13  9.96e-05     0s
  15   6.60924880e+01  6.57617701e+01  2.19e-09 4.55e-13  4.07e-05     0s
  16   6.60272001e+01  6.59254971e+01  9.03e-10 4.55e-13  1.25e-05     0s
  17   6.59829180e+01  6.59645711e+01  1.79e-10 4.55e-13  2.26e-06     0s
  18   6.59730361e+01  6.59722776e+01  5.34e-10 4.55e-13  9.33e-08     0s
  19   6.59726790e+01  6.59726790e+01  1.34e-10 4.55e-13  3.32e-12     0s

Barrier solved model in 19 iterations and 0.19 seconds (0.07 work units)
Optimal objective 6.59726790e+01


Root relaxation: objective 6.597268e+01, 405 iterations, 0.11 seconds (0.05 work units)

    Nodes    |    Current Node    |     Objective Bounds      |     Work
 Expl Unexpl |  Obj  Depth IntInf | Incumbent    BestBd   Gap | It/Node Time

     0     0   65.97268    0    3   76.05945   65.97268  13.3%     -    0s
H    0     0                      66.3822113   65.97268  0.62%     -    0s

Cutting planes:
  Gomory: 1
  MIR: 88

Explored 1 nodes (405 simplex iterations) in 0.25 seconds (0.10 work units)
Thread count was 36 (of 36 available processors)

Solution count 2: 66.3822 76.0594 

Optimal solution found (tolerance 1.00e-02)
Best objective 6.638221133753e+01, best bound 6.597267898901e+01, gap 0.6169%

Gurobi 9.5.0 (linux64) logging started Wed Nov  8 12:05:05 2023

Set parameter LogFile to value "/lustre1/scratch/348/vsc34888/JointResearch/05.Models/06.Benchmarking/F.Representative_days_based_on_Line_Benefit_NN_OC_fy_1/3-bus_ByStages_nc100/openStarNet_3-bus_ByStages_nc100.log"
Set parameter Method to value 2
Set parameter MIPFocus to value 1
Set parameter Presolve to value 2
Set parameter RINS to value 100
Set parameter MIPGap to value 0.01
Set parameter Threads to value 36
Set parameter TimeLimit to value 604800
Set parameter IterationLimit to value 760000000
No parameters matching 'relax_integrality' found
Gurobi Optimizer version 9.5.0 build v9.5.0rc5 (linux64)
Thread count: 36 physical cores, 36 logical processors, using up to 36 threads
Optimize a model with 6603 rows, 2961 columns and 15376 nonzeros
Model fingerprint: 0x3549c409
Coefficient statistics:
  Matrix range     [1e-02, 8e+02]
  Objective range  [1e+00, 1e+00]
  Bounds range     [9e-06, 2e+00]
  RHS range        [9e-06, 2e+00]
Presolve removed 5903 rows and 1604 columns
Presolve time: 0.01s
Presolved: 700 rows, 1357 columns, 2657 nonzeros

Ordering time: 0.00s

Barrier statistics:
 AA' NZ     : 1.700e+03
 Factor NZ  : 2.800e+03 (roughly 1 MB of memory)
 Factor Ops : 1.400e+04 (less than 1 second per iteration)
 Threads    : 1

                  Objective                Residual
Iter       Primal          Dual         Primal    Dual     Compl     Time
   0   7.51787093e+05 -4.24125945e+07  3.52e+01 1.35e+02  2.36e+04     0s
   1   4.07035754e+04 -6.31662037e+05  2.32e+00 1.20e-12  6.26e+02     0s
   2   2.43308593e+03 -1.03886625e+05  3.04e-02 2.73e-12  4.30e+01     0s
   3   9.70142380e+02 -2.48939098e+03  3.77e-04 6.82e-13  1.28e+00     0s
   4   2.59353846e+02 -1.11135601e+03  2.75e-05 4.55e-13  5.05e-01     0s
   5   1.87700324e+02 -4.80410477e+02  8.80e-06 4.55e-13  2.46e-01     0s
   6   1.36468685e+02 -1.60977927e+02  3.17e-06 8.91e-13  1.10e-01     0s
   7   9.05311303e+01 -3.98559840e+01  1.09e-06 8.31e-13  4.80e-02     0s
   8   7.35603614e+01  2.70830543e+01  2.34e-07 2.27e-13  1.71e-02     0s
   9   6.73611835e+01  6.40677113e+01  1.95e-08 4.55e-13  1.21e-03     0s
  10   6.64751795e+01  6.61840826e+01  1.46e-09 4.55e-13  1.07e-04     0s
  11   6.63833171e+01  6.63544730e+01  1.09e-10 4.55e-13  1.06e-05     0s
  12   6.63822441e+01  6.63796466e+01  2.26e-10 4.55e-13  9.57e-07     0s
  13   6.63822160e+01  6.63821940e+01  8.38e-11 2.27e-13  8.13e-09     0s
  14   6.63822113e+01  6.63822113e+01  1.55e-11 6.82e-13  1.36e-14     0s

Barrier solved model in 14 iterations and 0.01 seconds (0.01 work units)
Optimal objective 6.63822113e+01

Crossover log...

       0 DPushes remaining with DInf 0.0000000e+00                 0s

     100 PPushes remaining with PInf 0.0000000e+00                 0s
       0 PPushes remaining with PInf 0.0000000e+00                 0s

  Push phase complete: Pinf 0.0000000e+00, Dinf 1.4099832e-13      0s

Iteration    Objective       Primal Inf.    Dual Inf.      Time
     103    6.6382211e+01   0.000000e+00   0.000000e+00      0s

Solved in 103 iterations and 0.01 seconds (0.01 work units)
Optimal objective  6.638221134e+01
